NAME 
ROWS
 N  OBJ
 L  R0      
 L  R1      
 L  R2      
 E  R3      
 E  R4      
 E  R5      
 E  R6      
 E  R7      
 E  R8      
 E  R9      
 E  R10     
 E  R11     
 E  R12     
 E  R13     
 E  R14     
 E  R15     
 E  R16     
 E  R17     
COLUMNS
    MARKER    'MARKER'                 'INTORG'
    I0(8)     OBJ       -44
    I0(8)     R0        -127
    I0(8)     R1        141
    I0(8)     R2        147
    I0(8)     R3        7
    I0(8)     R6        17
    I0(8)     R8        6
    I0(8)     R9        3
    I0(8)     R17       1
    I1(11)    OBJ       96
    I1(11)    R0        -49
    I1(11)    R1        -25
    I1(11)    R2        -143
    I1(11)    R3        17
    I1(11)    R4        17
    I1(11)    R5        4
    I1(11)    R6        -1
    I1(11)    R7        4
    I1(11)    R8        8
    I1(11)    R9        3
    I1(11)    R17       1
    I2(6)     OBJ       -82
    I2(6)     R0        187
    I2(6)     R1        71
    I2(6)     R2        160
    I2(6)     R4        11
    I2(6)     R8        18
    I2(6)     R17       1
    I3(9)     OBJ       -28
    I3(9)     R0        100
    I3(9)     R1        -34
    I3(9)     R2        99
    I3(9)     R3        6
    I3(9)     R4        9
    I3(9)     R5        19
    I3(9)     R7        2
    I3(9)     R9        8
    I3(9)     R17       1
    I4(8)     OBJ       84
    I4(8)     R0        -146
    I4(8)     R1        -143
    I4(8)     R2        20
    I4(8)     R3        1
    I4(8)     R5        12
    I4(8)     R8        17
    I4(8)     R9        13
    I4(8)     R17       1
    I5(8)     OBJ       134
    I5(8)     R0        142
    I5(8)     R1        92
    I5(8)     R2        92
    I5(8)     R3        5
    I5(8)     R6        4
    I5(8)     R7        3
    I5(8)     R9        14
    I5(8)     R17       1
    I6(10)    OBJ       -150
    I6(10)    R0        24
    I6(10)    R1        66
    I6(10)    R2        9
    I6(10)    R3        2
    I6(10)    R4        6
    I6(10)    R6        12
    I6(10)    R7        1
    I6(10)    R8        6
    I6(10)    R9        19
    I6(10)    R17       1
    MARKER    'MARKER'                 'INTEND'
    C7(13)    OBJ       -5
    C7(13)    R0        4
    C7(13)    R1        -9
    C7(13)    R2        -6
    C7(13)    R4        19
    C7(13)    R6        12
    C7(13)    R7        3
    C7(13)    R8        -1
    C7(13)    R10       16
    C7(13)    R11       7
    C7(13)    R12       11
    C7(13)    R13       5
    C7(13)    R15       17
    C7(13)    R16       18
    C8(9)     OBJ       -4
    C8(9)     R0        -7
    C8(9)     R1        -4
    C8(9)     R2        2
    C8(9)     R4        14
    C8(9)     R7        3
    C8(9)     R8        -1
    C8(9)     R9        11
    C8(9)     R10       18
    C8(9)     R14       9
    C9(14)    OBJ       3
    C9(14)    R0        -6
    C9(14)    R1        -1
    C9(14)    R2        5
    C9(14)    R3        2
    C9(14)    R4        8
    C9(14)    R5        1
    C9(14)    R6        14
    C9(14)    R7        4
    C9(14)    R9        7
    C9(14)    R10       13
    C9(14)    R13       14
    C9(14)    R14       14
    C9(14)    R15       -1
    C9(14)    R16       9
    C10(12)   OBJ       -5
    C10(12)   R0        -10
    C10(12)   R1        3
    C10(12)   R2        2
    C10(12)   R3        9
    C10(12)   R4        15
    C10(12)   R7        5
    C10(12)   R9        2
    C10(12)   R10       13
    C10(12)   R11       9
    C10(12)   R12       4
    C10(12)   R13       6
    C10(12)   R16       14
    C11(13)   OBJ       3
    C11(13)   R0        -10
    C11(13)   R1        9
    C11(13)   R2        7
    C11(13)   R3        4
    C11(13)   R4        18
    C11(13)   R5        11
    C11(13)   R6        17
    C11(13)   R8        1
    C11(13)   R9        17
    C11(13)   R10       15
    C11(13)   R11       7
    C11(13)   R15       2
    C11(13)   R16       15
    C12(10)   R0        -4
    C12(10)   R1        4
    C12(10)   R2        3
    C12(10)   R3        13
    C12(10)   R4        2
    C12(10)   R6        4
    C12(10)   R7        7
    C12(10)   R12       3
    C12(10)   R13       18
    C12(10)   R15       17
    C13(11)   OBJ       7
    C13(11)   R0        -8
    C13(11)   R1        4
    C13(11)   R2        5
    C13(11)   R4        14
    C13(11)   R5        17
    C13(11)   R6        18
    C13(11)   R7        16
    C13(11)   R11       2
    C13(11)   R12       12
    C13(11)   R13       14
    C13(11)   R14       18
    C14(15)   OBJ       -4
    C14(15)   R0        6
    C14(15)   R1        7
    C14(15)   R2        9
    C14(15)   R3        2
    C14(15)   R4        19
    C14(15)   R5        15
    C14(15)   R6        19
    C14(15)   R7        17
    C14(15)   R8        13
    C14(15)   R9        1
    C14(15)   R11       2
    C14(15)   R13       11
    C14(15)   R14       12
    C14(15)   R15       18
    C14(15)   R16       12
    C15(1)    R3        1
    C16(1)    R4        1
    C17(1)    R5        1
    C18(1)    R6        1
    C19(1)    R7        1
    C20(1)    R8        1
    C21(1)    R9        1
    C22(1)    R10       1
    C23(1)    R11       1
    C24(1)    R12       1
    C25(1)    R13       1
    C26(1)    R14       1
    C27(1)    R15       1
    C28(1)    R16       1
    C29(1)    R17       1
RHS
    RHS1      R0        1.7566666666666669e+02
    RHS1      R1        147.6
    RHS1      R2        1.7606666666666666e+02
    RHS1      R3        55
    RHS1      R4        70
    RHS1      R5        78
    RHS1      R6        63
    RHS1      R7        71
    RHS1      R8        60
    RHS1      R9        82
    RHS1      R10       98
    RHS1      R11       76
    RHS1      R12       74
    RHS1      R13       95
    RHS1      R14       64
    RHS1      R15       50
    RHS1      R16       93
    RHS1      R17       2
BOUNDS
 UP BND1      I0(8)     1
 UP BND1      I1(11)    1
 UP BND1      I2(6)     1
 UP BND1      I3(9)     1
 UP BND1      I4(8)     1
 UP BND1      I5(8)     1
 UP BND1      I6(10)    1
ENDATA
